Problem:    
Rows:       256
Columns:    89 (72 integer, 72 binary)
Non-zeros:  800
Status:     INTEGER OPTIMAL
Objective:  value = 111.980308 (MINimum)

   No.   Row name        Activity     Lower bound   Upper bound
------ ------------    ------------- ------------- -------------
     1 r.5                   1111.98             0               
     2 r.6                  -974.961      -982.371               
     3 r.7                    111.98             0               
     4 r.8                   58.1924      -962.489               
     5 r.9                   1111.98             0               
     6 r.10                 -955.437      -980.477               
     7 r.11                   111.98             0               
     8 r.12                  74.2595      -956.782               
     9 r.13                  1111.98             0               
    10 r.14                 -925.741      -970.303               
    11 r.15                   111.98             0               
    12 r.16                  74.2595      -955.604               
    13 r.17                   111.98             0               
    14 r.18                  44.5625      -983.923               
    15 r.19                  1111.98             0               
    16 r.20                 -964.982      -968.021               
    17 r.21                   111.98             0               
    18 r.22                 -982.541       -985.58               
    19 r.23                  1111.98             0               
    20 r.24                 -941.808      -976.826               
    21 r.25                  1111.98             0               
    22 r.26                 -996.961      -996.961               
    23 r.27                   111.98             0               
    24 r.28                   3.0395      -995.168               
    25 r.29                   111.98             0               
    26 r.30                 -904.198      -962.391               
    27 r.31                  1111.98             0               
    28 r.32                  -888.02      -946.212               
    29 r.33                  1111.98             0               
    30 r.34                  -888.02      -962.279               
    31 r.35                   111.98             0               
    32 r.36                   111.98      -946.476               
    33 r.37                        1             1             = 
    34 r.38                        1             1             = 
    35 r.39                        1             1             = 
    36 r.40                        1             1             = 
    37 r.41                        1             1             = 
    38 r.42                        1             1             = 
    39 r.43                        1             1             = 
    40 r.44                        1             1             = 
    41 r.45                        2             2               
    42 r.46                       -2         -1001               
    43 r.47                 -980.477      -980.477               
    44 r.48                     1000             2               
    45 r.49                    -1000         -1001               
    46 r.50                  2016.07      -956.782               
    47 r.51                        2             2               
    48 r.52                       -2         -1001               
    49 r.53                  -950.78      -970.303               
    50 r.54                     1000             2               
    51 r.55                    -1000         -1001               
    52 r.56                  2016.07      -955.604               
    53 r.57                     1001             2               
    54 r.58                    -1001         -1001               
    55 r.59                  2019.52      -983.923               
    56 r.60                     1001             2               
    57 r.61                    -1001         -1001               
    58 r.62                  1976.83      -968.021               
    59 r.63                     1001             2               
    60 r.64                    -1001         -1001               
    61 r.65                   992.42       -985.58               
    62 r.66                     1001             2               
    63 r.67                    -1001         -1001               
    64 r.68                     2000      -976.826               
    65 r.69                     -978      -982.371               
    66 r.70                  55.1529      -962.489               
    67 r.71                     -978      -982.371               
    68 r.72                  55.1529      -962.489               
    69 r.73                 -929.238      -962.391               
    70 r.74                 -913.059      -946.212               
    71 r.75                 -962.391      -962.391               
    72 r.76                 -946.212      -946.212               
    73 r.77                        2             2               
    74 r.78                       -2         -1001               
    75 r.79                 -913.059      -962.279               
    76 r.80                     1000             2               
    77 r.81                    -1000         -1001               
    78 r.82                  2053.79      -946.476               
    79 r.83                        2             2               
    80 r.84                       -2         -1001               
    81 r.85                  980.477        17.629               
    82 r.86                     1000             2               
    83 r.87                    -1000         -1001               
    84 r.88                  1983.93       37.5114               
    85 r.89                        2             2               
    86 r.90                       -2         -1001               
    87 r.91                 -970.303      -970.303               
    88 r.92                     1000             2               
    89 r.93                    -1000         -1001               
    90 r.94                     2000      -955.604               
    91 r.95                     1001             2               
    92 r.96                    -1001         -1001               
    93 r.97                     2000      -983.923               
    94 r.98                     1001             2               
    95 r.99                    -1001         -1001               
    96 r.100                 1960.76      -968.021               
    97 r.101                    1001             2               
    98 r.102                   -1001         -1001               
    99 r.103                 972.897       -985.58               
   100 r.104                    1001             2               
   101 r.105                   -1001         -1001               
   102 r.106                 1983.93      -976.826               
   103 r.107                -958.477      -980.477               
   104 r.108                   71.22      -956.782               
   105 r.109                -958.477      -980.477               
   106 r.110                   71.22      -956.782               
   107 r.111                    1001             2               
   108 r.112                   -1001         -1001               
   109 r.113                 1051.24      -962.391               
   110 r.114                    1001             2               
   111 r.115                   -1001         -1001               
   112 r.116                 2037.72      -946.212               
   113 r.117                -932.582      -962.279               
   114 r.118                 67.4178      -946.476               
   115 r.119                -962.279      -962.279               
   116 r.120                 37.7208      -946.476               
   117 r.121                       2             2               
   118 r.122                      -2         -1001               
   119 r.123                  950.78        17.629               
   120 r.124                    1000             2               
   121 r.125                   -1000         -1001               
   122 r.126                 1983.93       37.5114               
   123 r.127                       2             2               
   124 r.128                      -2         -1001               
   125 r.129                 970.303       19.5233               
   126 r.130                    1000             2               
   127 r.131                   -1000         -1001               
   128 r.132                    2000        43.218               
   129 r.133                -970.303      -970.303               
   130 r.134                 29.6969      -955.604               
   131 r.135                -960.759      -970.303               
   132 r.136                 39.2411      -955.604               
   133 r.137                    1001             2               
   134 r.138                   -1001         -1001               
   135 r.139                   943.2       -985.58               
   136 r.140                    1001             2               
   137 r.141                   -1001         -1001               
   138 r.142                 1983.93      -976.826               
   139 r.143                 -928.78      -970.303               
   140 r.144                   71.22      -955.604               
   141 r.145                 -928.78      -970.303               
   142 r.146                   71.22      -955.604               
   143 r.147                    1001             2               
   144 r.148                   -1001         -1001               
   145 r.149                 1021.54      -962.391               
   146 r.150                    1001             2               
   147 r.151                   -1001         -1001               
   148 r.152                 2037.72      -946.212               
   149 r.153                -962.279      -962.279               
   150 r.154                 37.7208      -946.476               
   151 r.155                -962.279      -962.279               
   152 r.156                 37.7208      -946.476               
   153 r.157                    1001             2               
   154 r.158                   -1001         -1001               
   155 r.159                 1980.48        17.629               
   156 r.160                    1001             2               
   157 r.161                   -1001         -1001               
   158 r.162                 2023.17       37.5114               
   159 r.163                    1001             2               
   160 r.164                   -1001         -1001               
   161 r.165                    2000       19.5233               
   162 r.166                    1001             2               
   163 r.167                   -1001         -1001               
   164 r.168                 2039.24        43.218               
   165 r.169                    1000             2               
   166 r.170                   -1000         -1001               
   167 r.171                 972.897       -985.58               
   168 r.172                       2             2               
   169 r.173                      -2         -1001               
   170 r.174                -976.826      -976.826               
   171 r.175                  41.523      -983.923               
   172 r.176                -968.021      -968.021               
   173 r.177                  41.523      -983.923               
   174 r.178                -968.021      -968.021               
   175 r.179                    1000             2               
   176 r.180                   -1000         -1001               
   177 r.181                 1051.24      -962.391               
   178 r.182                       2             2               
   179 r.183                      -2         -1001               
   180 r.184                -923.038      -946.212               
   181 r.185                -932.582      -962.279               
   182 r.186                 67.4178      -946.476               
   183 r.187                -923.038      -962.279               
   184 r.188                  76.962      -946.476               
   185 r.189                    1001             2               
   186 r.190                   -1001         -1001               
   187 r.191                 3007.58        17.629               
   188 r.192                    1001             2               
   189 r.193                   -1001         -1001               
   190 r.194                    2000       37.5114               
   191 r.195                    1001             2               
   192 r.196                   -1001         -1001               
   193 r.197                  3027.1       19.5233               
   194 r.198                    1001             2               
   195 r.199                   -1001         -1001               
   196 r.200                 2016.07        43.218               
   197 r.201                    1001             2               
   198 r.202                   -1001         -1001               
   199 r.203                  3056.8       29.6969               
   200 r.204                    1001             2               
   201 r.205                   -1001         -1001               
   202 r.206                 2016.07       44.3965               
   203 r.207                    1000             2               
   204 r.208                   -1000         -1001               
   205 r.209                  3027.1       16.0769               
   206 r.210                       2             2               
   207 r.211                      -2         -1001               
   208 r.212                 976.826       31.9788               
   209 r.213                 -985.58       -985.58               
   210 r.214                -944.847      -976.826               
   211 r.215                 -985.58       -985.58               
   212 r.216                -944.847      -976.826               
   213 r.217                 78.3422      -962.391               
   214 r.218                 94.5209      -946.212               
   215 r.219                -962.391      -962.391               
   216 r.220                -946.212      -946.212               
   217 r.221                 94.5209      -962.279               
   218 r.222                 1094.52      -946.476               
   219 r.223                -946.212      -962.279               
   220 r.224                 53.7879      -946.476               
   221 r.225                    1001             2               
   222 r.226                   -1001         -1001               
   223 r.227                 2948.76       19.5233               
   224 r.228                    1001             2               
   225 r.229                   -1001         -1001               
   226 r.230                 1962.28        43.218               
   227 r.231                    1001             2               
   228 r.232                   -1001         -1001               
   229 r.233                 2978.46       29.6969               
   230 r.234                    1001             2               
   231 r.235                   -1001         -1001               
   232 r.236                 1962.28       44.3965               
   233 r.237                    1000             2               
   234 r.238                   -1000         -1001               
   235 r.239                 2948.76       16.0769               
   236 r.240                       2             2               
   237 r.241                      -2         -1001               
   238 r.242                 923.038       31.9788               
   239 r.243                    1001             2               
   240 r.244                   -1001         -1001               
   241 r.245                 3016.18      -962.279               
   242 r.246                    1001             2               
   243 r.247                   -1001         -1001               
   244 r.248                    2000      -946.476               
   245 r.249                       2             2               
   246 r.250                      -2         -1001               
   247 r.251                 913.059        17.629               
   248 r.252                    1000             2               
   249 r.253                   -1000         -1001               
   250 r.254                 1946.21       37.5114               
   251 r.255                    1001             2               
   252 r.256                   -1001         -1001               
   253 r.257                 983.821       37.6092               
   254 r.258                    1001             2               
   255 r.259                   -1001         -1001               
   256 r.260                    2000       53.7879               

   No. Column name       Activity     Lower bound   Upper bound
------ ------------    ------------- ------------- -------------
     1 tt                     111.98             0               
     2 s_1_1        *              1             0             1 
     3 t_1_1                 86.9411             0               
     4 s_1_7        *              0             0             1 
     5 s_2_1        *              0             0             1 
     6 t_2_1                 53.7879             0               
     7 s_2_7        *              1             0             1 
     8 s_1_2        *              1             0             1 
     9 t_1_2                 67.4178             0               
    10 s_1_8        *              1             0             1 
    11 s_2_2        *              0             0             1 
    12 t_2_2                 37.7208             0               
    13 s_2_8        *              0             0             1 
    14 s_1_3        *              1             0             1 
    15 t_1_3                 37.7208             0               
    16 s_2_3        *              0             0             1 
    17 t_2_3                 37.7208             0               
    18 s_1_4        *              0             0             1 
    19 t_1_4                 67.4178             0               
    20 s_2_4        *              1             0             1 
    21 t_2_4                  76.962             0               
    22 s_1_5        *              0             0             1 
    23 t_1_5                 1094.52             0               
    24 s_2_5        *              1             0             1 
    25 t_2_5                 53.7879             0               
    26 s_1_6        *              1             0             1 
    27 t_1_6                 108.941             0               
    28 s_2_6        *              0             0             1 
    29 t_2_6                 108.941             0               
    30 t_1_7                 1016.18             0               
    31 t_2_7                       0             0               
    32 t_1_8                       0             0               
    33 t_2_8                       0             0               
    34 r_1_1_2      *              0             0             1 
    35 u_1_1_2      *              1             0             1 
    36 r_2_1_2      *              1             0             1 
    37 u_2_1_2      *              0             0             1 
    38 r_1_1_3      *              0             0             1 
    39 u_1_1_3      *              1             0             1 
    40 r_2_1_3      *              1             0             1 
    41 u_2_1_3      *              0             0             1 
    42 r_1_1_4      *              1             0             1 
    43 u_1_1_4      *              0             0             1 
    44 r_2_1_4      *              1             0             1 
    45 u_2_1_4      *              0             0             1 
    46 r_1_1_5      *              1             0             1 
    47 u_1_1_5      *              0             0             1 
    48 r_2_1_5      *              1             0             1 
    49 u_2_1_5      *              0             0             1 
    50 r_1_1_8      *              0             0             1 
    51 u_1_1_8      *              1             0             1 
    52 r_2_1_8      *              1             0             1 
    53 u_2_1_8      *              0             0             1 
    54 r_1_2_3      *              0             0             1 
    55 u_1_2_3      *              1             0             1 
    56 r_2_2_3      *              1             0             1 
    57 u_2_2_3      *              0             0             1 
    58 r_1_2_4      *              1             0             1 
    59 u_1_2_4      *              0             0             1 
    60 r_2_2_4      *              1             0             1 
    61 u_2_2_4      *              0             0             1 
    62 r_1_2_5      *              1             0             1 
    63 u_1_2_5      *              0             0             1 
    64 r_2_2_5      *              1             0             1 
    65 u_2_2_5      *              0             0             1 
    66 r_1_2_7      *              1             0             1 
    67 u_1_2_7      *              0             0             1 
    68 r_2_2_7      *              1             0             1 
    69 u_2_2_7      *              0             0             1 
    70 r_1_3_5      *              1             0             1 
    71 u_1_3_5      *              0             0             1 
    72 r_2_3_5      *              1             0             1 
    73 u_2_3_5      *              0             0             1 
    74 r_1_3_7      *              1             0             1 
    75 u_1_3_7      *              0             0             1 
    76 r_2_3_7      *              1             0             1 
    77 u_2_3_7      *              0             0             1 
    78 r_1_4_5      *              1             0             1 
    79 u_1_4_5      *              0             0             1 
    80 r_2_4_5      *              0             0             1 
    81 u_2_4_5      *              1             0             1 
    82 r_1_4_7      *              1             0             1 
    83 u_1_4_7      *              0             0             1 
    84 r_2_4_7      *              0             0             1 
    85 u_2_4_7      *              1             0             1 
    86 r_1_7_8      *              1             0             1 
    87 u_1_7_8      *              0             0             1 
    88 r_2_7_8      *              1             0             1 
    89 u_2_7_8      *              0             0             1 

Integer feasibility conditions:

KKT.PE: max.abs.err = 4.55e-13 on row 46
        max.rel.err = 1.11e-16 on row 46
        High quality

KKT.PB: max.abs.err = 1.14e-13 on row 87
        max.rel.err = 1.17e-16 on row 87
        High quality

End of output
